\ENCODING=ISO-8859-1
\Problem name: 

Minimize
 obj1: 0 p_00 + 0 p_01 + 0 p_02 + 0 p_03 + 0 p_04 + 0 p_05 + 0 p_06 + 0 p_07
       + 0 p_08 + 0 p_09 + 0 p_10 + 0 p_11 + 0 p_12 + 0 p_13 + 0 p_14 + 0 p_15
       + 0 p_16 + 0 p_17 + 0 p_18 + 0 p_19 + 0 p_20 + 0 p_21 + 0 p_22 + 0 p_23
       + 0 p_24 + 0 p_25 + 0 p_26 + 0 p_27 + 0 p_28 + 0 p_29 + 0 p_30 + 0 p_31
       + 0 p_32 + 0 p_33 + 0 p_34 + 0 p_35 + 0 p_36 + 0 p_37 + 0 p_38 + 0 p_39
       + 0 p_40 + 0 p_41 + 0 p_42 + 0 p_43 + 0 p_44 + 0 p_45 + 0 p_46 + 0 p_47
       + 0 p_48 + 0 p_49 + 0 p_50 + 0 p_51 + 0 p_52 + 0 p_53 + 0 p_54 + 0 p_55
       + 0 p_56 + 0 p_57 + 0 p_58 + 0 p_59 + 0 p_60 + 0 p_61 + 0 p_62 + 0 p_63
       + 0 p_64 + 0 p_65 + 0 p_66 + 0 p_67 + 0 p_68 + 0 p_69 + 0 p_70 + 0 p_71
       + 0 p_72 + 0 p_73 + 0 p_74 + 0 p_75 + 0 p_76 + 0 p_77 + 0 p_78 + 0 p_79
       + 0 p_80 + 0 p_81 + 0 p_82 + 0 p_83 + 0 p_84 + 0 p_85 + 0 p_86 + 0 p_87
       + 0 p_88 + 0 p_89 + 0 p_90 + 0 p_91 + 0 p_92 + 0 p_93 + 0 p_94 + 0 p_95
       + 0 p_96 + 0 p_97 + 0 p_98 + 0 p_99 + 0 p_100 + 0 p_101 + 0 p_102
       + 0 p_103 + 0 p_104 + 0 p_105 + 0 p_106 + 0 p_107 + 0 p_108 + 0 p_109
       + 0 p_110 + 0 p_111 + 0 p_112 + 0 p_113 + 0 p_114 + 0 p_115 + 0 p_116
       + 0 p_117 + 0 p_118 + 0 p_119 + 36 q_00 + 41 q_01 + 43 q_02 + 64 q_03
       + 6 q_04 + 33 q_05 + 46 q_06 + 32 q_07 + 60 q_08 + 9 q_09 + 34 q_10
       + 69 q_11 + 46 q_12 + 36 q_13 + 7 q_14 + 94 q_15 + 95 q_16 + 99 q_17
       + 54 q_18 + 15 q_19 + 63 q_20 + 8 q_21 + 46 q_22 + 8 q_23 + 83 q_24
       + 100 q_25 + 53 q_26 + 92 q_27 + 18 q_28 + 88 q_29 + 61 q_30 + 63 q_31
       + 70 q_32 + 64 q_33 + 83 q_34 + 38 q_35 + 72 q_36 + 95 q_37 + 97 q_38
       + 32 q_39 + 31 q_40 + 23 q_41 + 91 q_42 + 69 q_43 + 90 q_44 + 81 q_45
       + 50 q_46 + 66 q_47 + 90 q_48 + 9 q_49 + 40 q_50 + 5 q_51 + 86 q_52
       + 45 q_53 + 73 q_54 + 37 q_55 + 33 q_56 + 29 q_57 + 95 q_58 + 26 q_59
       + 92 q_60 + 83 q_61 + 47 q_62 + 87 q_63 + 42 q_64 + 5 q_65 + 19 q_66
       + 24 q_67 + 79 q_68 + 89 q_69 + 42 q_70 + 40 q_71 + 38 q_72 + 15 q_73
       + 74 q_74 + 65 q_75 + 58 q_76 + 28 q_77 + 2 q_78 + 58 q_79 + 11 q_80
       + 81 q_81 + 97 q_82 + 68 q_83 + 94 q_84 + 89 q_85 + 91 q_86 + 12 q_87
       + 51 q_88 + 42 q_89 + 76 q_90 + 90 q_91 + 89 q_92 + 71 q_93 + 52 q_94
       + 26 q_95 + 100 q_96 + 3 q_97 + 71 q_98 + 80 q_99 + 40 q_100 + 37 q_101
       + 81 q_102 + 94 q_103 + 22 q_104 + 96 q_105 + 11 q_106 + 84 q_107
       + 84 q_108 + 31 q_109 + 59 q_110 + 81 q_111 + 97 q_112 + 23 q_113
       + 37 q_114 + 40 q_115 + 8 q_116 + 8 q_117 + 76 q_118 + 76 q_119
Subject To
 c51: - 92 x_00 - 59 x_01 - 37 x_02 - 54 x_03 - 47 x_04 - 28 x_05 - 38 x_06
      - 99 x_07 - 99 x_08 - 28 x_09 - 37 x_10 - 47 x_11 - 6 x_12 - 31 x_13
      - 52 x_14 - 11 x_15 - 33 x_16 - 3 x_17 - 36 x_18 - 62 x_19 - 25 x_20
      - 4 x_21 - 84 x_22 - 85 x_23 - 50 x_24 - 53 x_25 - 32 x_26 - 24 x_27
      - 56 x_28 - 87 x_29 - 60 x_30 - 74 x_31 - 27 x_32 - 43 x_33 - 69 x_34
      - 98 x_35 - 60 x_36 - 84 x_37 - 69 x_38 - 85 x_39 - x_40 - 88 x_41
      - 27 x_42 - 28 x_43 - 43 x_44 - 88 x_45 - 100 x_46 - 15 x_47 - 83 x_48
      - x_49 - 18 x_50 - 21 x_51 - 15 x_52 - 73 x_53 - 24 x_54 - 53 x_55
      - 10 x_56 - 22 x_57 - 63 x_58 - 81 x_59 - 6 x_60 - 21 x_61 - 98 x_62
      - 34 x_63 - 74 x_64 - 5 x_65 - 16 x_66 - 61 x_67 - 73 x_68 - 45 x_69
      - 38 x_70 - 13 x_71 - 81 x_72 - 66 x_73 - 53 x_74 - 61 x_75 - 46 x_76
      - 49 x_77 - 41 x_78 - 62 x_79 - 21 x_80 - 14 x_81 - 17 x_82 - 49 x_83
      - 94 x_84 - 81 x_85 - 44 x_86 - 61 x_87 - 26 x_88 - 77 x_89 - 34 x_90
      - 87 x_91 - 47 x_92 - 95 x_93 - 79 x_94 - 95 x_95 - 34 x_96 - 32 x_97
      - 11 x_98 - 77 x_99 - 11 x_100 - 91 x_101 - 17 x_102 - 29 x_103 - 2 x_104
      - 52 x_105 - 59 x_106 - 30 x_107 - 8 x_108 - 29 x_109 - 97 x_110
      - 34 x_111 - 82 x_112 - 78 x_113 - 59 x_114 - 50 x_115 - 4 x_116
      - 34 x_117 - 97 x_118 - 31 x_119 - 25 q_00 - 84 q_01 - 49 q_02 - 74 q_03
      - 92 q_04 - 82 q_05 - 98 q_06 - 93 q_07 - 58 q_08 - 76 q_09 - 90 q_10
      - 98 q_11 - 70 q_12 - 78 q_13 - 44 q_14 - 21 q_15 - 27 q_16 - 61 q_17
      - 8 q_18 - 51 q_19 - 42 q_20 - 78 q_21 - 45 q_22 - 12 q_23 - 78 q_24
      - 16 q_25 - 79 q_26 - 97 q_27 - 22 q_28 - 28 q_29 - 20 q_30 - 31 q_31
      - 68 q_32 - 93 q_33 - 43 q_34 - 50 q_35 - 99 q_36 - 91 q_37 - 50 q_38
      - 46 q_39 - 98 q_40 - 68 q_41 - 2 q_42 - 59 q_43 - 16 q_44 - 20 q_45
      - 19 q_46 - 66 q_47 - 88 q_48 - 67 q_49 - 71 q_50 - 81 q_51 - 29 q_52
      - 53 q_53 - 83 q_54 - q_55 - 23 q_56 - 3 q_57 - 64 q_58 - 24 q_59
      - 2 q_60 - 50 q_61 - 23 q_62 - 94 q_63 - 77 q_64 - 8 q_65 - 10 q_66
      - 83 q_67 - 66 q_68 - 35 q_69 - 6 q_70 - q_71 - 54 q_72 - 43 q_73
      - 36 q_74 - 95 q_75 - 14 q_76 - 89 q_77 - 65 q_78 - 99 q_79 - 15 q_80
      - 100 q_81 - 94 q_82 - 53 q_83 - 62 q_84 - 10 q_85 - 92 q_86 - 84 q_87
      - 51 q_88 - 28 q_89 - 78 q_90 - 52 q_91 - 17 q_92 - 11 q_93 - 61 q_94
      - 71 q_95 - 32 q_96 - 42 q_97 - 70 q_98 - 57 q_99 - 47 q_100 - 40 q_101
      - 7 q_102 - 87 q_103 - 92 q_104 - 10 q_105 - 21 q_106 - 96 q_107
      - 49 q_108 - 51 q_109 - 56 q_110 - 78 q_111 - 42 q_112 - 26 q_113
      - 26 q_114 - 60 q_115 - 5 q_116 - 85 q_117 - 31 q_118 - 80 q_119 <= -9116
 c52: - 34 x_00 - 24 x_01 - 46 x_02 - 83 x_03 - 48 x_04 - 6 x_05 - 67 x_06
      - 83 x_07 - 80 x_08 - 12 x_09 - 5 x_10 - 13 x_11 - 98 x_12 - 4 x_13
      - 93 x_14 - 64 x_15 - 12 x_16 - 48 x_17 - 67 x_18 - 80 x_19 - 76 x_20
      - 27 x_21 - 55 x_22 - 22 x_23 - 49 x_24 - 82 x_25 - 21 x_26 - 67 x_27
      - 15 x_28 - 79 x_29 - 60 x_30 - 61 x_31 - 4 x_32 - 35 x_33 - 53 x_34
      - 44 x_35 - 17 x_36 - 91 x_37 - 74 x_38 - 20 x_39 - 67 x_40 - 5 x_41
      - 31 x_42 - 23 x_43 - 59 x_44 - 49 x_45 - 4 x_46 - 78 x_47 - 18 x_48
      - 82 x_49 - 37 x_50 - 49 x_51 - 9 x_52 - 42 x_53 - 30 x_54 - 63 x_55
      - 40 x_56 - 8 x_57 - 83 x_58 - 63 x_59 - 58 x_60 - 22 x_61 - 9 x_62
      - 69 x_63 - 5 x_64 - 89 x_65 - 51 x_66 - 90 x_67 - 39 x_68 - 90 x_69
      - 87 x_70 - 15 x_71 - 19 x_72 - 100 x_73 - 69 x_74 - 18 x_75 - 5 x_76
      - 43 x_77 - 100 x_78 - 46 x_79 - 88 x_80 - 98 x_81 - 26 x_82 - 38 x_83
      - 79 x_84 - x_85 - 92 x_86 - 94 x_87 - 51 x_88 - 23 x_89 - 79 x_90
      - 6 x_91 - 6 x_92 - 74 x_93 - 23 x_94 - 10 x_95 - 100 x_96 - 32 x_97
      - 98 x_98 - 47 x_99 - 16 x_100 - 36 x_101 - 43 x_102 - 83 x_103
      - 73 x_104 - 67 x_105 - 90 x_106 - 92 x_107 - 31 x_108 - 3 x_109
      - 87 x_110 - 59 x_111 - 44 x_112 - 78 x_113 - 65 x_114 - 94 x_115
      - 12 x_116 - 13 x_117 - 75 x_118 - 11 x_119 - 57 q_00 - 65 q_01 - 88 q_02
      - 96 q_03 - 66 q_04 - 56 q_05 - 53 q_06 - 68 q_07 - 78 q_08 - 95 q_09
      - 87 q_10 - 52 q_11 - 43 q_12 - 75 q_13 - 96 q_14 - 68 q_15 - 37 q_16
      - 59 q_17 - 59 q_18 - 63 q_19 - 75 q_20 - 93 q_21 - 94 q_22 - 70 q_23
      - 3 q_24 - 21 q_25 - 66 q_26 - 35 q_27 - 96 q_28 - 76 q_29 - 56 q_30
      - 82 q_31 - 39 q_32 - 6 q_33 - 59 q_34 - 42 q_35 - 93 q_36 - 9 q_37
      - 92 q_38 - 27 q_39 - 6 q_40 - 61 q_41 - 69 q_42 - 21 q_43 - 7 q_44
      - 84 q_45 - 76 q_46 - 56 q_47 - q_48 - 4 q_49 - 3 q_50 - 3 q_51 - 51 q_52
      - 30 q_53 - 61 q_54 - q_55 - 58 q_56 - 28 q_57 - 79 q_58 - 56 q_59
      - 20 q_60 - 69 q_61 - 23 q_62 - 9 q_63 - 83 q_64 - 85 q_65 - 13 q_66
      - 98 q_67 - 42 q_68 - 65 q_69 - 44 q_70 - 6 q_71 - 32 q_72 - 39 q_73
      - 90 q_74 - 73 q_75 - 4 q_76 - 42 q_77 - 74 q_78 - 55 q_79 - 67 q_80
      - 30 q_81 - 46 q_82 - 58 q_83 - 34 q_84 - 88 q_85 - 96 q_86 - 35 q_87
      - 56 q_88 - 85 q_89 - 33 q_90 - 40 q_91 - 83 q_92 - 32 q_93 - 88 q_94
      - 100 q_95 - 81 q_96 - 31 q_97 - 5 q_98 - 46 q_99 - 98 q_100 - 78 q_101
      - 79 q_102 - 81 q_103 - 48 q_104 - 20 q_105 - 95 q_106 - 9 q_107
      - 99 q_108 - 11 q_109 - 84 q_110 - 93 q_111 - 30 q_112 - 43 q_113
      - 57 q_114 - 3 q_115 - 17 q_116 - 20 q_117 - 63 q_118 - 38 q_119 <= -9252
 c53: - 62 x_00 - 68 x_01 - 60 x_02 - 38 x_03 - 39 x_04 - 77 x_05 - 4 x_06
      - 55 x_07 - 63 x_08 - 18 x_09 - 64 x_10 - 90 x_11 - 32 x_12 - 37 x_13
      - 23 x_14 - 81 x_15 - 12 x_16 - 36 x_17 - 57 x_18 - 2 x_19 - 69 x_20
      - 36 x_21 - 97 x_22 - 78 x_23 - 95 x_24 - 76 x_25 - 37 x_26 - 47 x_27
      - 81 x_28 - 39 x_29 - 27 x_30 - 74 x_31 - x_32 - 27 x_33 - 87 x_34
      - 36 x_35 - 13 x_36 - 63 x_37 - 24 x_38 - 26 x_39 - 85 x_40 - 35 x_41
      - 51 x_42 - 8 x_43 - 28 x_44 - 11 x_45 - 38 x_46 - 96 x_47 - 18 x_48
      - 2 x_49 - 32 x_50 - 26 x_51 - 56 x_52 - 83 x_53 - 95 x_54 - 15 x_55
      - 72 x_56 - 52 x_57 - 27 x_58 - 50 x_59 - 34 x_60 - 83 x_61 - 42 x_62
      - 58 x_63 - 7 x_64 - 7 x_65 - 34 x_66 - 80 x_67 - 72 x_68 - 13 x_69
      - 33 x_70 - 50 x_71 - 41 x_72 - 63 x_73 - 19 x_74 - 38 x_75 - 40 x_76
      - 92 x_77 - 57 x_78 - 11 x_79 - 6 x_80 - 23 x_81 - 16 x_82 - 80 x_83
      - 71 x_84 - 69 x_85 - 58 x_86 - 31 x_87 - 74 x_88 - 65 x_89 - 14 x_90
      - 10 x_91 - 48 x_92 - 22 x_93 - 91 x_94 - 61 x_95 - 45 x_96 - 60 x_97
      - 78 x_98 - 12 x_99 - 45 x_100 - 98 x_101 - 54 x_102 - 30 x_103
      - 52 x_104 - 99 x_105 - 90 x_106 - 87 x_107 - 10 x_108 - 45 x_109
      - 38 x_110 - 50 x_111 - 25 x_112 - 12 x_113 - 16 x_114 - 34 x_115
      - 77 x_116 - x_117 - 97 x_118 - 21 x_119 - 79 q_00 - 11 q_01 - 25 q_02
      - 79 q_03 - 35 q_04 - 95 q_05 - 94 q_06 - 90 q_07 - 82 q_08 - 79 q_09
      - 17 q_10 - 10 q_11 - 25 q_12 - 29 q_13 - 24 q_14 - 26 q_15 - 54 q_16
      - 62 q_17 - 50 q_18 - 89 q_19 - 73 q_20 - 18 q_21 - 82 q_22 - 62 q_23
      - 4 q_24 - 30 q_25 - 41 q_26 - 44 q_27 - 70 q_28 - 78 q_29 - 86 q_30
      - 30 q_31 - 76 q_32 - 9 q_33 - 78 q_34 - 82 q_35 - 45 q_36 - 2 q_37
      - 60 q_38 - 82 q_39 - 29 q_40 - 81 q_41 - 54 q_42 - 45 q_43 - 35 q_44
      - 49 q_45 - 78 q_46 - 68 q_47 - 17 q_48 - 95 q_49 - 99 q_50 - 25 q_51
      - 18 q_52 - 23 q_53 - 8 q_54 - 16 q_55 - 59 q_56 - 8 q_57 - 33 q_58
      - 70 q_59 - 46 q_60 - 92 q_61 - 86 q_62 - 73 q_63 - 94 q_64 - 94 q_65
      - 59 q_66 - 26 q_67 - 37 q_68 - 7 q_69 - 85 q_70 - 52 q_71 - 61 q_72
      - 99 q_73 - 42 q_74 - 51 q_75 - 56 q_76 - 79 q_77 - 27 q_78 - 9 q_79
      - 61 q_80 - 36 q_81 - 60 q_82 - 66 q_83 - 7 q_84 - 7 q_85 - 37 q_86
      - 76 q_87 - 73 q_88 - 60 q_89 - 68 q_90 - 70 q_91 - 22 q_92 - 6 q_93
      - 87 q_94 - 87 q_95 - 24 q_96 - 15 q_97 - 53 q_98 - 19 q_99 - 10 q_100
      - 98 q_101 - 29 q_102 - 11 q_103 - 45 q_104 - 46 q_105 - 20 q_106
      - 31 q_107 - 65 q_108 - 6 q_109 - 6 q_110 - 22 q_111 - 48 q_112
      - 85 q_113 - 30 q_114 - 29 q_115 - 92 q_116 - 88 q_117 - 30 q_118
      - 50 q_119 <= -8690
 c54: - 6 x_00 - 94 x_01 - 29 x_02 - 89 x_03 - 19 x_04 - 53 x_05 - 23 x_06
      - 34 x_07 - 43 x_08 - 4 x_09 - 46 x_10 - 17 x_11 - 75 x_12 - 33 x_13
      - 18 x_14 - 96 x_15 - 94 x_16 - 49 x_17 - 27 x_18 - 17 x_19 - 89 x_20
      - 34 x_21 - 27 x_22 - 39 x_23 - 8 x_24 - 99 x_25 - 40 x_26 - 2 x_27
      - 38 x_28 - 29 x_29 - 26 x_30 - 55 x_31 - 45 x_32 - 100 x_33 - 9 x_34
      - 70 x_35 - 35 x_36 - 80 x_37 - 59 x_38 - 58 x_39 - 73 x_40 - 25 x_41
      - 82 x_42 - 18 x_43 - 61 x_44 - 16 x_45 - 6 x_46 - 90 x_47 - 15 x_48
      - 28 x_49 - 54 x_50 - 96 x_51 - 56 x_52 - 41 x_53 - 99 x_54 - 38 x_55
      - 94 x_56 - 74 x_57 - 61 x_58 - 19 x_59 - 75 x_60 - 8 x_61 - 86 x_62
      - 72 x_63 - 19 x_64 - 36 x_65 - 59 x_66 - 72 x_67 - 52 x_68 - 32 x_69
      - 100 x_70 - 70 x_71 - 61 x_72 - x_73 - 20 x_74 - 99 x_75 - 29 x_76
      - 13 x_77 - 25 x_78 - 99 x_79 - 99 x_80 - 95 x_81 - 27 x_82 - 6 x_83
      - 19 x_84 - 95 x_85 - 11 x_86 - 88 x_87 - 44 x_88 - 41 x_89 - 15 x_90
      - 67 x_91 - 75 x_92 - 80 x_93 - 90 x_94 - 39 x_95 - 52 x_96 - 96 x_97
      - 41 x_98 - 52 x_99 - 22 x_100 - 88 x_101 - 64 x_102 - 78 x_103
      - 19 x_104 - 68 x_105 - 96 x_106 - 91 x_107 - x_108 - 41 x_109 - 87 x_110
      - 95 x_111 - 92 x_112 - 99 x_113 - 55 x_114 - 98 x_115 - 31 x_116
      - 46 x_117 - 73 x_118 - 57 x_119 - 97 q_00 - 57 q_01 - 45 q_02 - 6 q_03
      - 98 q_04 - 49 q_05 - 40 q_06 - 33 q_07 - 17 q_08 - 8 q_09 - 46 q_10
      - 4 q_11 - 59 q_12 - 40 q_13 - 51 q_14 - 72 q_15 - 43 q_16 - 71 q_17
      - 28 q_18 - 98 q_19 - 29 q_20 - 59 q_21 - 94 q_22 - 54 q_23 - 49 q_24
      - 26 q_25 - 12 q_26 - 91 q_27 - 56 q_28 - 64 q_29 - 52 q_30 - 42 q_31
      - 87 q_32 - 57 q_33 - 34 q_34 - 52 q_35 - 64 q_36 - 93 q_37 - 81 q_38
      - 81 q_39 - 76 q_40 - 72 q_41 - 8 q_42 - 32 q_43 - 95 q_44 - 84 q_45
      - 39 q_46 - 57 q_47 - 61 q_48 - 22 q_49 - 45 q_50 - 31 q_51 - 13 q_52
      - 14 q_53 - 41 q_54 - 78 q_55 - 47 q_56 - 24 q_57 - 63 q_58 - 14 q_59
      - 82 q_60 - 84 q_61 - 2 q_62 - 21 q_63 - 3 q_64 - 62 q_65 - 17 q_66
      - 43 q_67 - 9 q_68 - 43 q_69 - 23 q_70 - 6 q_71 - 15 q_72 - 91 q_73
      - 46 q_74 - 84 q_75 - 55 q_76 - 61 q_77 - 57 q_78 - 14 q_79 - 43 q_80
      - 97 q_81 - 63 q_82 - 79 q_83 - 41 q_84 - 75 q_85 - 85 q_86 - 84 q_87
      - 56 q_88 - 55 q_89 - 8 q_90 - 25 q_91 - 41 q_92 - 8 q_93 - 63 q_94
      - 83 q_95 - 33 q_96 - 39 q_97 - 70 q_98 - 64 q_99 - 49 q_100 - 4 q_101
      - 23 q_102 - 63 q_103 - 87 q_104 - 76 q_105 - 56 q_106 - 47 q_107
      - 81 q_108 - q_109 - 52 q_110 - 10 q_111 - 60 q_112 - 73 q_113 - 55 q_114
      - 87 q_115 - 25 q_116 - 29 q_117 - 62 q_118 - 79 q_119 <= -9239
 c55: - 55 x_00 - 19 x_01 - 92 x_02 - 31 x_03 - 99 x_04 - 8 x_05 - 4 x_06
      - 100 x_07 - 64 x_08 - 66 x_09 - 14 x_10 - 31 x_11 - 95 x_12 - 45 x_13
      - 16 x_14 - 48 x_15 - 42 x_16 - 77 x_17 - 97 x_18 - 38 x_19 - 84 x_20
      - 91 x_21 - 23 x_22 - 65 x_23 - 49 x_24 - 33 x_25 - 5 x_26 - 77 x_27
      - 41 x_28 - 65 x_29 - 13 x_30 - 87 x_31 - 46 x_32 - 73 x_33 - 89 x_34
      - 28 x_35 - 59 x_36 - 43 x_37 - 67 x_38 - 100 x_39 - 81 x_40 - 77 x_41
      - 39 x_42 - 82 x_43 - 28 x_44 - 51 x_45 - 32 x_46 - 72 x_47 - 27 x_48
      - 63 x_49 - 26 x_50 - 15 x_51 - 10 x_52 - 68 x_53 - 7 x_54 - 94 x_55
      - 23 x_56 - 80 x_57 - 36 x_58 - 42 x_59 - 69 x_60 - 32 x_61 - 55 x_62
      - 72 x_63 - 70 x_64 - 30 x_65 - 25 x_66 - 47 x_67 - 27 x_68 - 15 x_69
      - 4 x_70 - 63 x_71 - 60 x_72 - 63 x_73 - 53 x_74 - 19 x_75 - 96 x_76
      - 74 x_77 - 94 x_78 - 29 x_79 - 91 x_80 - 70 x_81 - 53 x_82 - 69 x_83
      - 13 x_84 - 92 x_85 - 45 x_86 - 70 x_87 - 9 x_88 - 91 x_89 - 6 x_90
      - 42 x_91 - 86 x_92 - 43 x_93 - 24 x_94 - 78 x_95 - 21 x_96 - 81 x_97
      - 46 x_98 - 79 x_99 - 3 x_100 - 49 x_101 - 36 x_102 - 14 x_103 - 53 x_104
      - 14 x_105 - 78 x_106 - 48 x_107 - 20 x_108 - 7 x_109 - 5 x_110
      - 49 x_111 - 11 x_112 - 18 x_113 - 42 x_114 - 3 x_115 - 68 x_116
      - 41 x_117 - 95 x_118 - 39 x_119 - 24 q_00 - 17 q_01 - 66 q_02 - 84 q_03
      - 69 q_04 - 13 q_05 - 62 q_06 - 47 q_07 - 77 q_08 - q_09 - 42 q_10
      - 19 q_11 - 14 q_12 - 95 q_13 - 40 q_14 - 12 q_15 - 38 q_16 - 77 q_17
      - 52 q_18 - 8 q_19 - 100 q_20 - 43 q_21 - 98 q_22 - 91 q_23 - 39 q_24
      - 53 q_25 - 64 q_26 - 72 q_27 - 20 q_28 - 4 q_29 - 42 q_30 - 17 q_31
      - 77 q_32 - 31 q_33 - 8 q_34 - 38 q_35 - 99 q_36 - 4 q_37 - 82 q_38
      - 90 q_39 - 76 q_40 - 6 q_41 - 69 q_42 - q_43 - 78 q_44 - 11 q_45
      - 54 q_46 - 52 q_47 - 42 q_48 - q_49 - 7 q_50 - 8 q_51 - 45 q_52
      - 82 q_53 - 37 q_54 - 83 q_55 - 15 q_56 - 64 q_57 - 32 q_58 - 84 q_59
      - 17 q_60 - 59 q_61 - 33 q_62 - 3 q_63 - 68 q_64 - 14 q_65 - 16 q_66
      - 32 q_67 - 53 q_68 - 8 q_69 - 21 q_70 - 43 q_71 - 56 q_72 - 69 q_73
      - 81 q_74 - 7 q_75 - 84 q_76 - 22 q_77 - 70 q_78 - 22 q_79 - 68 q_80
      - 15 q_81 - 50 q_82 - 65 q_83 - 99 q_84 - 20 q_85 - 36 q_86 - 66 q_87
      - 29 q_88 - 54 q_89 - 94 q_90 - 85 q_91 - 84 q_92 - 8 q_93 - 78 q_94
      - 56 q_95 - 57 q_96 - 79 q_97 - 45 q_98 - 57 q_99 - 75 q_100 - 74 q_101
      - 18 q_102 - 31 q_103 - 49 q_104 - 34 q_105 - 37 q_106 - 43 q_107
      - 7 q_108 - 77 q_109 - 79 q_110 - 98 q_111 - 5 q_112 - q_113 - 6 q_114
      - 9 q_115 - 98 q_116 - 25 q_117 - 95 q_118 - 73 q_119 <= -8673
Bounds
 0 <= q_00 <= 1
 0 <= q_01 <= 1
 0 <= q_02 <= 1
 0 <= q_03 <= 1
 0 <= q_04 <= 1
 0 <= q_05 <= 1
 0 <= q_06 <= 1
 0 <= q_07 <= 1
 0 <= q_08 <= 1
 0 <= q_09 <= 1
 0 <= q_10 <= 1
 0 <= q_11 <= 1
 0 <= q_12 <= 1
 0 <= q_13 <= 1
 0 <= q_14 <= 1
 0 <= q_15 <= 1
 0 <= q_16 <= 1
 0 <= q_17 <= 1
 0 <= q_18 <= 1
 0 <= q_19 <= 1
 0 <= q_20 <= 1
 0 <= q_21 <= 1
 0 <= q_22 <= 1
 0 <= q_23 <= 1
 0 <= q_24 <= 1
 0 <= q_25 <= 1
 0 <= q_26 <= 1
 0 <= q_27 <= 1
 0 <= q_28 <= 1
 0 <= q_29 <= 1
 0 <= q_30 <= 1
 0 <= q_31 <= 1
 0 <= q_32 <= 1
 0 <= q_33 <= 1
 0 <= q_34 <= 1
 0 <= q_35 <= 1
 0 <= q_36 <= 1
 0 <= q_37 <= 1
 0 <= q_38 <= 1
 0 <= q_39 <= 1
 0 <= q_40 <= 1
 0 <= q_41 <= 1
 0 <= q_42 <= 1
 0 <= q_43 <= 1
 0 <= q_44 <= 1
 0 <= q_45 <= 1
 0 <= q_46 <= 1
 0 <= q_47 <= 1
 0 <= q_48 <= 1
 0 <= q_49 <= 1
 0 <= q_50 <= 1
 0 <= q_51 <= 1
 0 <= q_52 <= 1
 0 <= q_53 <= 1
 0 <= q_54 <= 1
 0 <= q_55 <= 1
 0 <= q_56 <= 1
 0 <= q_57 <= 1
 0 <= q_58 <= 1
 0 <= q_59 <= 1
 0 <= q_60 <= 1
 0 <= q_61 <= 1
 0 <= q_62 <= 1
 0 <= q_63 <= 1
 0 <= q_64 <= 1
 0 <= q_65 <= 1
 0 <= q_66 <= 1
 0 <= q_67 <= 1
 0 <= q_68 <= 1
 0 <= q_69 <= 1
 0 <= q_70 <= 1
 0 <= q_71 <= 1
 0 <= q_72 <= 1
 0 <= q_73 <= 1
 0 <= q_74 <= 1
 0 <= q_75 <= 1
 0 <= q_76 <= 1
 0 <= q_77 <= 1
 0 <= q_78 <= 1
 0 <= q_79 <= 1
 0 <= q_80 <= 1
 0 <= q_81 <= 1
 0 <= q_82 <= 1
 0 <= q_83 <= 1
 0 <= q_84 <= 1
 0 <= q_85 <= 1
 0 <= q_86 <= 1
 0 <= q_87 <= 1
 0 <= q_88 <= 1
 0 <= q_89 <= 1
 0 <= q_90 <= 1
 0 <= q_91 <= 1
 0 <= q_92 <= 1
 0 <= q_93 <= 1
 0 <= q_94 <= 1
 0 <= q_95 <= 1
 0 <= q_96 <= 1
 0 <= q_97 <= 1
 0 <= q_98 <= 1
 0 <= q_99 <= 1
 0 <= q_100 <= 1
 0 <= q_101 <= 1
 0 <= q_102 <= 1
 0 <= q_103 <= 1
 0 <= q_104 <= 1
 0 <= q_105 <= 1
 0 <= q_106 <= 1
 0 <= q_107 <= 1
 0 <= q_108 <= 1
 0 <= q_109 <= 1
 0 <= q_110 <= 1
 0 <= q_111 <= 1
 0 <= q_112 <= 1
 0 <= q_113 <= 1
 0 <= q_114 <= 1
 0 <= q_115 <= 1
 0 <= q_116 <= 1
 0 <= q_117 <= 1
 0 <= q_118 <= 1
 0 <= q_119 <= 1
Binaries
 q_00  q_01  q_02  q_03  q_04  q_05  q_06  q_07  q_08  q_09  q_10  q_11  q_12 
 q_13  q_14  q_15  q_16  q_17  q_18  q_19  q_20  q_21  q_22  q_23  q_24  q_25 
 q_26  q_27  q_28  q_29  q_30  q_31  q_32  q_33  q_34  q_35  q_36  q_37  q_38 
 q_39  q_40  q_41  q_42  q_43  q_44  q_45  q_46  q_47  q_48  q_49  q_50  q_51 
 q_52  q_53  q_54  q_55  q_56  q_57  q_58  q_59  q_60  q_61  q_62  q_63  q_64 
 q_65  q_66  q_67  q_68  q_69  q_70  q_71  q_72  q_73  q_74  q_75  q_76  q_77 
 q_78  q_79  q_80  q_81  q_82  q_83  q_84  q_85  q_86  q_87  q_88  q_89  q_90 
 q_91  q_92  q_93  q_94  q_95  q_96  q_97  q_98  q_99  q_100  q_101  q_102 
 q_103  q_104  q_105  q_106  q_107  q_108  q_109  q_110  q_111  q_112  q_113 
 q_114  q_115  q_116  q_117  q_118  q_119 
End
